107447
107447
107447
107447
101995
101995
101995
99449.8
99449.8
99449.8
99449.8
99449.8
99449.8
98857.4
91778.1
91778.1
91778.1
91778.1
91778.1
91778.1
91778.1
91778.1
91778.1
91778.1
91778.1
89945
89945
88682.9
88682.9
88232.6
88232.6
88232.6
88232.6
87022.5
87022.5
85788.9
84231.4
84231.4
84231.4
84231.4
84231.4
84231.4
84231.4
84231.4
84231.4
84231.4
84231.4
81141.9
81141.9
81141.9
81141.9
81141.9
81141.9
81105.3
81105.3
81105.3
81105.3
78735.4
78735.4
78735.4
78735.4
78735.4
78735.4
78735.4
78735.4
78735.4
78619.7
78619.7
78619.7
75954.7
75954.7
75954.7
75954.7
75954.7
75954.7
75954.7
75954.7
75954.7
75954.7
75954.7
75048.8
75048.8
75048.8
75048.8
74441.7
73924.9
73924.9
73924.9
73744.1
73744.1
73744.1
73744.1
73744.1
73744.1
73744.1
73744.1
73744.1
73744.1
73744.1
72971.2
